72 66888
18 27 70 30 16 39 61 56 54 8 60 28 26 67 17 9 62 64 23 10 38 55 44 57 68 48 51 29 7 49 1 71 4 19 40 15 14 65 22 46 6 36 66 33 72 31 47 21 59 13 37 50 63 58 53 35 52 32 43 20 69 42 41 12 34 2 3 24 25 45 11 5 
